100
32
19
2
14
16
4
23
21
13
4
6
18
13
3
15
7
10
6
9
19
8
29
29
8
25
2
5
3
9
17
2
4
2
19
2
3
3
4
4
18
1
2
3
1
2
1
1
1
8
24
1
2
1
2
2
1
20
5
1
17
2
2
4
2
2
1
3
2
1
18
18
6
1
2
6
4
3
18
1
7
16
2
6
1
5
6
5
1
1
18
4
1
2
5
3
3
17
4
1
2
2